33D32945 STP File, STP Format Version 1.0

SECTION Comment
Name    "i080-243"
Creator "Cees Duin"
Remark  "Incidence graph"
END

SECTION Graph
Nodes 80
Edges 632
E 1 5 300
E 1 9 299
E 1 11 301
E 1 15 300
E 1 18 201
E 1 21 195
E 1 22 204
E 1 24 203
E 1 27 198
E 1 33 191
E 1 39 203
E 1 46 211
E 1 51 201
E 1 58 193
E 1 60 200
E 1 62 194
E 1 66 199
E 1 67 210
E 1 70 201
E 1 77 200
E 1 78 203
E 2 7 302
E 2 10 304
E 2 15 303
E 2 18 194
E 2 29 190
E 2 38 205
E 2 39 203
E 2 49 204
E 2 52 205
E 2 66 199
E 2 70 203
E 2 74 206
E 2 75 195
E 2 79 202
E 2 80 190
E 3 9 294
E 3 11 297
E 3 28 193
E 3 31 204
E 3 32 195
E 3 40 207
E 3 48 197
E 3 60 199
E 3 62 195
E 3 75 193
E 4 14 301
E 4 15 300
E 4 18 213
E 4 23 203
E 4 25 200
E 4 26 197
E 4 33 202
E 4 37 196
E 4 45 189
E 4 47 201
E 4 52 199
E 4 54 201
E 4 59 193
E 4 66 194
E 4 70 212
E 4 71 190
E 4 73 200
E 4 79 203
E 5 7 298
E 5 17 201
E 5 24 214
E 5 26 204
E 5 28 201
E 5 29 191
E 5 36 203
E 5 39 202
E 5 42 202
E 5 48 205
E 5 50 201
E 5 51 201
E 5 53 195
E 5 55 200
E 5 56 196
E 5 62 207
E 5 66 204
E 5 74 203
E 5 75 206
E 5 79 191
E 6 11 307
E 6 16 292
E 6 18 197
E 6 31 199
E 6 42 202
E 6 56 194
E 6 70 198
E 6 79 204
E 7 10 300
E 7 11 297
E 7 20 192
E 7 24 191
E 7 28 201
E 7 31 195
E 7 37 201
E 7 38 208
E 7 53 195
E 7 58 205
E 7 60 197
E 7 64 193
E 7 65 188
E 7 72 196
E 7 74 198
E 7 77 196
E 8 37 195
E 8 42 189
E 8 45 204
E 8 48 200
E 8 51 191
E 8 52 201
E 8 58 196
E 8 61 207
E 8 62 198
E 8 65 204
E 8 66 201
E 8 73 192
E 8 74 188
E 8 76 197
E 9 11 293
E 9 12 296
E 9 13 296
E 9 14 301
E 9 21 204
E 9 27 204
E 9 29 196
E 9 33 199
E 9 34 199
E 9 35 202
E 9 36 195
E 9 38 207
E 9 46 204
E 9 50 196
E 9 51 188
E 9 63 206
E 9 72 197
E 9 74 204
E 9 75 206
E 9 76 196
E 10 22 201
E 10 30 201
E 10 31 196
E 10 34 197
E 10 38 205
E 10 40 195
E 10 42 202
E 10 44 195
E 10 51 198
E 10 59 207
E 10 70 201
E 10 74 203
E 11 15 294
E 11 17 207
E 11 20 199
E 11 24 206
E 11 27 206
E 11 36 201
E 11 43 196
E 11 48 193
E 11 59 183
E 11 60 205
E 11 64 208
E 11 67 198
E 11 71 200
E 11 73 196
E 11 79 200
E 12 17 199
E 12 19 210
E 12 20 201
E 12 42 198
E 12 47 198
E 12 70 198
E 12 72 189
E 12 77 197
E 12 80 197
E 13 24 202
E 13 28 200
E 13 32 199
E 13 33 207
E 13 34 196
E 13 36 203
E 13 41 203
E 13 46 200
E 13 49 191
E 13 50 201
E 13 55 195
E 13 70 202
E 13 76 210
E 13 78 188
E 13 79 199
E 13 80 190
E 14 18 204
E 14 19 204
E 14 21 196
E 14 23 205
E 14 32 201
E 14 34 206
E 14 37 197
E 14 47 198
E 14 50 195
E 14 58 193
E 14 59 204
E 14 61 207
E 14 63 210
E 14 64 199
E 14 66 192
E 14 68 191
E 14 69 196
E 14 72 202
E 14 74 200
E 15 26 205
E 15 31 193
E 15 32 193
E 15 37 206
E 15 41 198
E 15 44 193
E 15 46 198
E 15 54 205
E 15 61 202
E 15 67 203
E 15 74 197
E 16 17 202
E 16 18 203
E 16 28 195
E 16 29 202
E 16 32 207
E 16 35 202
E 16 47 198
E 16 48 205
E 16 49 204
E 16 54 204
E 16 56 202
E 16 64 197
E 16 77 198
E 17 21 100
E 17 23 99
E 17 31 109
E 17 36 98
E 17 37 105
E 17 40 106
E 17 43 99
E 17 46 97
E 17 47 101
E 17 49 95
E 17 52 97
E 17 55 104
E 17 64 93
E 17 65 94
E 17 77 107
E 17 78 102
E 17 79 98
E 18 25 96
E 18 31 102
E 18 32 103
E 18 33 92
E 18 35 99
E 18 41 99
E 18 43 98
E 18 44 105
E 18 45 98
E 18 52 95
E 18 63 92
E 18 70 96
E 19 22 102
E 19 27 102
E 19 28 100
E 19 35 103
E 19 37 98
E 19 40 106
E 19 46 97
E 19 47 95
E 19 51 105
E 19 57 91
E 19 60 109
E 19 65 96
E 19 66 104
E 19 72 102
E 19 75 99
E 19 78 98
E 20 28 95
E 20 37 103
E 20 47 104
E 20 50 94
E 20 54 100
E 20 55 106
E 20 67 102
E 20 71 99
E 20 77 99
E 21 22 98
E 21 24 97
E 21 35 98
E 21 46 99
E 21 55 99
E 21 59 97
E 21 60 107
E 21 61 98
E 21 64 96
E 21 70 100
E 21 75 97
E 22 27 100
E 22 31 98
E 22 34 94
E 22 36 100
E 22 37 107
E 22 41 103
E 22 55 95
E 22 70 103
E 22 78 101
E 22 80 92
E 23 30 103
E 23 37 104
E 23 38 98
E 23 40 102
E 23 44 105
E 23 48 101
E 23 51 102
E 23 54 98
E 23 57 105
E 23 61 110
E 24 25 103
E 24 26 98
E 24 36 99
E 24 39 100
E 24 49 95
E 24 52 95
E 24 55 100
E 24 59 100
E 24 61 97
E 24 75 104
E 25 33 97
E 25 34 95
E 25 44 99
E 25 45 99
E 25 47 90
E 25 48 107
E 25 53 98
E 25 54 98
E 25 57 104
E 25 63 105
E 25 65 98
E 25 68 97
E 25 69 102
E 25 72 99
E 25 77 106
E 25 79 99
E 25 80 99
E 26 29 93
E 26 38 107
E 26 39 102
E 26 42 103
E 26 46 97
E 26 49 91
E 26 52 94
E 26 53 91
E 26 55 98
E 26 58 93
E 26 60 101
E 26 74 103
E 26 78 106
E 26 79 94
E 27 29 103
E 27 36 99
E 27 39 103
E 27 45 100
E 27 49 102
E 27 53 94
E 27 57 99
E 27 58 96
E 27 61 107
E 27 63 104
E 27 66 96
E 27 68 98
E 27 74 108
E 27 80 103
E 28 34 101
E 28 36 102
E 28 39 97
E 28 42 98
E 28 45 103
E 28 46 98
E 28 47 92
E 28 49 106
E 28 55 102
E 28 61 99
E 28 65 93
E 28 67 99
E 28 69 97
E 28 73 89
E 28 79 100
E 28 80 98
E 29 33 102
E 29 44 93
E 29 58 104
E 29 80 94
E 30 42 97
E 30 44 98
E 30 52 108
E 30 57 96
E 30 62 96
E 30 65 89
E 30 66 102
E 30 71 107
E 30 73 97
E 30 76 101
E 31 34 101
E 31 42 99
E 31 46 106
E 31 58 97
E 31 64 107
E 31 70 99
E 32 54 102
E 32 58 101
E 32 61 97
E 32 62 98
E 32 68 93
E 32 72 104
E 32 76 102
E 32 77 95
E 33 36 99
E 33 48 93
E 33 49 97
E 33 65 97
E 33 70 93
E 33 72 104
E 33 75 100
E 33 79 99
E 34 37 91
E 34 40 104
E 34 41 98
E 34 46 97
E 34 51 97
E 34 53 103
E 34 61 98
E 34 64 104
E 34 68 90
E 34 72 91
E 35 37 93
E 35 40 95
E 35 44 105
E 35 48 96
E 35 51 99
E 35 62 98
E 35 63 94
E 35 67 99
E 35 68 108
E 35 72 100
E 35 73 96
E 35 75 96
E 35 76 99
E 35 77 102
E 35 79 97
E 36 43 106
E 36 46 104
E 36 47 99
E 36 50 96
E 36 59 110
E 36 77 99
E 36 78 96
E 37 41 98
E 37 54 100
E 37 55 100
E 37 56 101
E 38 47 104
E 38 50 108
E 38 55 104
E 38 57 95
E 38 59 104
E 38 62 101
E 38 75 103
E 38 78 99
E 39 42 106
E 39 46 99
E 39 49 103
E 39 51 91
E 39 55 100
E 39 56 94
E 39 63 104
E 39 65 101
E 39 66 100
E 39 67 101
E 39 69 105
E 39 72 103
E 39 75 98
E 40 45 98
E 40 48 102
E 40 54 105
E 40 56 97
E 40 62 100
E 40 66 95
E 41 45 92
E 41 46 95
E 41 52 93
E 41 58 94
E 41 61 102
E 41 73 104
E 41 79 100
E 42 45 99
E 42 53 99
E 42 57 95
E 42 58 96
E 42 73 102
E 42 76 101
E 43 46 101
E 43 54 106
E 43 57 93
E 43 59 100
E 43 62 101
E 43 67 102
E 43 74 96
E 44 49 97
E 44 53 95
E 44 69 104
E 44 76 102
E 44 77 102
E 44 79 105
E 45 48 98
E 45 52 98
E 45 63 102
E 45 64 98
E 45 68 96
E 45 70 98
E 45 71 101
E 45 76 97
E 45 77 100
E 46 56 92
E 46 57 99
E 46 60 98
E 46 64 105
E 46 80 102
E 47 56 102
E 47 57 96
E 47 59 97
E 47 62 99
E 47 68 102
E 47 75 111
E 47 76 104
E 47 79 98
E 47 80 112
E 48 51 98
E 48 57 107
E 48 62 95
E 48 65 103
E 48 69 97
E 48 78 95
E 49 64 105
E 49 74 95
E 50 62 102
E 50 63 97
E 50 68 105
E 50 74 108
E 50 79 103
E 51 54 97
E 51 60 100
E 51 64 108
E 51 68 96
E 51 79 103
E 52 53 103
E 52 57 100
E 52 69 98
E 52 73 104
E 52 77 99
E 53 54 96
E 53 57 94
E 53 60 99
E 53 72 94
E 53 79 100
E 54 65 102
E 54 66 94
E 54 69 101
E 54 71 106
E 54 72 100
E 54 77 90
E 55 58 105
E 55 68 103
E 55 74 87
E 55 77 99
E 56 67 95
E 56 68 95
E 56 79 92
E 57 59 107
E 57 60 97
E 57 66 100
E 57 72 106
E 57 79 95
E 58 68 98
E 58 71 97
E 58 75 101
E 59 60 103
E 59 61 99
E 59 63 97
E 60 80 94
E 61 63 105
E 61 68 105
E 61 75 94
E 61 76 95
E 62 71 94
E 62 73 94
E 62 74 107
E 62 75 89
E 62 79 99
E 63 67 90
E 63 78 96
E 63 79 95
E 64 66 102
E 64 72 107
E 64 73 98
E 64 75 102
E 64 80 91
E 65 68 104
E 65 78 96
E 66 69 91
E 66 71 109
E 66 74 105
E 66 80 98
E 67 69 99
E 68 69 102
E 68 73 110
E 68 79 102
E 69 77 93
E 69 78 95
E 70 72 95
E 71 74 90
E 71 77 99
E 71 79 97
E 72 80 97
E 73 77 101
E 74 80 103
E 75 77 108
E 76 79 102
END

SECTION Terminals
Terminals 16
T 1
T 2
T 3
T 4
T 5
T 6
T 7
T 8
T 9
T 10
T 11
T 12
T 13
T 14
T 15
T 16
END

EOF
